Rodando pra 1h
Optimize a model with 360044 rows, 539150 columns and 2692977 nonzeros
Coefficient statistics:
  Matrix range    [1e+00, 1e+06]
  Objective range [3e-01, 3e-01]
  Bounds range    [1e+00, 1e+06]
  RHS range       [1e+00, 6e+02]
Presolve time: 3.90s
Presolved: 360044 rows, 539150 columns, 2692977 nonzeros
Variable types: 359425 continuous, 179725 integer (179725 binary)
Optimize a model with 360044 rows, 539150 columns and 2692977 nonzeros
Coefficient statistics:
  Matrix range    [1e+00, 1e+06]
  Objective range [3e-01, 3e-01]
  Bounds range    [1e+00, 1e+06]
  RHS range       [1e+00, 6e+02]
Presolved: 360044 rows, 539150 columns, 2692977 nonzeros


Root simplex log...

Iteration    Objective       Primal Inf.    Dual Inf.      Time
       0    0.0000000e+00   1.804585e+03   0.000000e+00     14s
    1218    0.0000000e+00   0.000000e+00   0.000000e+00     14s

Root relaxation: objective 0.000000e+00, 1218 iterations, 1.35 seconds

    Nodes    |    Current Node    |     Objective Bounds      |     Work
 Expl Unexpl |  Obj  Depth IntInf | Incumbent    BestBd   Gap | It/Node Time

     0     0    0.00000    0  612          -    0.00000      -     -  286s
     0     0    0.00000    0  506          -    0.00000      -     -  782s
     0     0    0.00000    0  400          -    0.00000      -     -  783s
     0     0    0.00000    0  295          -    0.00000      -     -  857s
     0     0    0.00000    0  189          -    0.00000      -     -  858s
     0     0    0.00000    0  140          -    0.00000      -     -  899s
     0     0    0.00000    0   73          -    0.00000      -     -  900s
     0     0    0.00000    0   81          -    0.00000      -     -  912s
     0     0    0.00000    0   83          -    0.00000      -     -  914s
     0     0    0.00000    0  113          -    0.00000      -     -  933s
     0     0    0.00000    0  117          -    0.00000      -     -  935s
     0     0    0.00000    0  190          -    0.00000      -     - 1902s
     0     0    0.00000    0  190          -    0.00000      -     - 2541s

Cutting planes:
  MIR: 2
  Flow cover: 491

Explored 0 nodes (1088431 simplex iterations) in 3600.01 seconds
Thread count was 1 (of 4 available processors)

Time limit reached
Best objective -, best bound 0.000000000000e+00, gap -
Tempo: 3594.99 segundos

Error code = 10004
Var::get
